NAME : in_house_8_11
TYPE : TSP
DIMENSION : 8
EDGE_WEIGHT_TYPE : EXPLICIT
EDGE_WEIGHT_FORMAT : UPPER_ROW
COMMENT : INVERSION_SHIFT=6
EDGE_WEIGHT_SECTION
13
44
11
59
61
16
38
50
42
16
50
18
12
29
58
48
30
19
13
49
46
55
56
14
15
35
28
56
